
Gurobi 9.1.1 (linux64) logging started Wed Dec  1 03:21:48 2021

Changed value of parameter LogFile to /home/aniket/python_scripts/Plasmids-Optimization/exp/2021-06-14__iterative_MILP_edge_novelty/output/sample_53/1.1.1/nplasmids_1/MILP/m.log
   Prev:   Default: 
Changed value of parameter TimeLimit to 240.0
   Prev: inf  Min: 0.0  Max: inf  Default: inf
Changed value of parameter MIPGap to 0.05
   Prev: 0.0001  Min: 0.0  Max: inf  Default: 0.0001
Gurobi Optimizer version 9.1.1 build v9.1.1rc0 (linux64)
Thread count: 2 physical cores, 4 logical processors, using up to 4 threads
Optimize a model with 16090 rows, 5417 columns and 43540 nonzeros
Model fingerprint: 0x6f592a42
Variable types: 1401 continuous, 4016 integer (3736 binary)
Coefficient statistics:
  Matrix range     [1e-02, 1e+06]
  Objective range  [2e-03, 1e+00]
  Bounds range     [1e+00, 1e+00]
  RHS range        [7e-01, 2e+05]
Presolve removed 13920 rows and 2668 columns
Presolve time: 0.07s
Presolved: 2170 rows, 2749 columns, 13328 nonzeros
Variable types: 529 continuous, 2220 integer (2220 binary)
Found heuristic solution: objective -1.6984479

Root relaxation: cutoff, 1240 iterations, 0.03 seconds

    Nodes    |    Current Node    |     Objective Bounds      |     Work
 Expl Unexpl |  Obj  Depth IntInf | Incumbent    BestBd   Gap | It/Node Time

     0     0     cutoff    0        -1.69845   -1.69845  0.00%     -    0s

Explored 0 nodes (1240 simplex iterations) in 0.11 seconds
Thread count was 4 (of 4 available processors)

Solution count 1: -1.69845 
No other solutions better than -1.69845

Optimal solution found (tolerance 5.00e-02)
Best objective -1.698447893570e+00, best bound -1.698447893570e+00, gap 0.0000%
Gurobi Optimizer version 9.1.1 build v9.1.1rc0 (linux64)
Thread count: 2 physical cores, 4 logical processors, using up to 4 threads
Optimize a model with 16091 rows, 5417 columns and 43541 nonzeros
Model fingerprint: 0xdf6b2e76
Variable types: 1401 continuous, 4016 integer (3736 binary)
Coefficient statistics:
  Matrix range     [1e-02, 1e+06]
  Objective range  [2e-03, 1e+00]
  Bounds range     [1e+00, 1e+00]
  RHS range        [7e-01, 2e+05]

MIP start from previous solve did not produce a new incumbent solution
MIP start from previous solve violates constraint circular by 1.000000000

Presolve removed 13922 rows and 2669 columns
Presolve time: 0.07s
Presolved: 2169 rows, 2748 columns, 13324 nonzeros
Variable types: 529 continuous, 2219 integer (2219 binary)
Found heuristic solution: objective -1.6984479

Root relaxation: cutoff, 1370 iterations, 0.04 seconds

    Nodes    |    Current Node    |     Objective Bounds      |     Work
 Expl Unexpl |  Obj  Depth IntInf | Incumbent    BestBd   Gap | It/Node Time

     0     0     cutoff    0        -1.69845   -1.69845  0.00%     -    0s

Explored 0 nodes (1370 simplex iterations) in 0.12 seconds
Thread count was 4 (of 4 available processors)

Solution count 1: -1.69845 
No other solutions better than -1.69845

Optimal solution found (tolerance 5.00e-02)
Best objective -1.698447893570e+00, best bound -1.698447893570e+00, gap 0.0000%
Gurobi Optimizer version 9.1.1 build v9.1.1rc0 (linux64)
Thread count: 2 physical cores, 4 logical processors, using up to 4 threads
Optimize a model with 16092 rows, 5417 columns and 43542 nonzeros
Model fingerprint: 0x6ef277ab
Variable types: 1401 continuous, 4016 integer (3736 binary)
Coefficient statistics:
  Matrix range     [1e-02, 1e+06]
  Objective range  [2e-03, 1e+00]
  Bounds range     [1e+00, 1e+00]
  RHS range        [7e-01, 2e+05]

MIP start from previous solve did not produce a new incumbent solution
MIP start from previous solve violates constraint circular by 1.000000000

Presolve removed 13922 rows and 2669 columns
Presolve time: 0.07s
Presolved: 2170 rows, 2748 columns, 13327 nonzeros
Variable types: 529 continuous, 2219 integer (2219 binary)
Found heuristic solution: objective -1.6984479

Root relaxation: cutoff, 1372 iterations, 0.04 seconds

    Nodes    |    Current Node    |     Objective Bounds      |     Work
 Expl Unexpl |  Obj  Depth IntInf | Incumbent    BestBd   Gap | It/Node Time

     0     0     cutoff    0        -1.69845   -1.69845  0.00%     -    0s

Explored 0 nodes (1372 simplex iterations) in 0.12 seconds
Thread count was 4 (of 4 available processors)

Solution count 1: -1.69845 
No other solutions better than -1.69845

Optimal solution found (tolerance 5.00e-02)
Best objective -1.698447893570e+00, best bound -1.698447893570e+00, gap 0.0000%

Gurobi 9.1.1 (linux64) logging started Wed Dec  1 03:21:49 2021

Changed value of parameter LogFile to /home/aniket/python_scripts/Plasmids-Optimization/exp/2021-06-14__iterative_MILP_edge_novelty/output/sample_53/1.1.1/nplasmids_1/MILP/m.log
   Prev:   Default: 
Changed value of parameter TimeLimit to 240.0
   Prev: inf  Min: 0.0  Max: inf  Default: inf
Changed value of parameter MIPGap to 0.05
   Prev: 0.0001  Min: 0.0  Max: inf  Default: 0.0001
Gurobi Optimizer version 9.1.1 build v9.1.1rc0 (linux64)
Thread count: 2 physical cores, 4 logical processors, using up to 4 threads
Optimize a model with 15972 rows, 5377 columns and 43210 nonzeros
Model fingerprint: 0xd2664e9a
Variable types: 1391 continuous, 3986 integer (3708 binary)
Coefficient statistics:
  Matrix range     [1e-02, 1e+06]
  Objective range  [2e-03, 1e+00]
  Bounds range     [1e+00, 1e+00]
  RHS range        [7e-01, 2e+05]
Presolve removed 13816 rows and 2636 columns
Presolve time: 0.07s
Presolved: 2156 rows, 2741 columns, 13280 nonzeros
Variable types: 525 continuous, 2216 integer (2216 binary)
Found heuristic solution: objective -1.6984479

Root relaxation: cutoff, 795 iterations, 0.03 seconds

    Nodes    |    Current Node    |     Objective Bounds      |     Work
 Expl Unexpl |  Obj  Depth IntInf | Incumbent    BestBd   Gap | It/Node Time

     0     0     cutoff    0        -1.69845   -1.69845  0.00%     -    0s

Explored 0 nodes (795 simplex iterations) in 0.11 seconds
Thread count was 4 (of 4 available processors)

Solution count 1: -1.69845 
No other solutions better than -1.69845

Optimal solution found (tolerance 5.00e-02)
Best objective -1.698447893570e+00, best bound -1.698447893570e+00, gap 0.0000%
Gurobi Optimizer version 9.1.1 build v9.1.1rc0 (linux64)
Thread count: 2 physical cores, 4 logical processors, using up to 4 threads
Optimize a model with 15973 rows, 5377 columns and 43211 nonzeros
Model fingerprint: 0xef9e6963
Variable types: 1391 continuous, 3986 integer (3708 binary)
Coefficient statistics:
  Matrix range     [1e-02, 1e+06]
  Objective range  [2e-03, 1e+00]
  Bounds range     [1e+00, 1e+00]
  RHS range        [7e-01, 2e+05]

MIP start from previous solve did not produce a new incumbent solution
MIP start from previous solve violates constraint circular by 1.000000000

Presolve removed 13818 rows and 2637 columns
Presolve time: 0.07s
Presolved: 2155 rows, 2740 columns, 13276 nonzeros
Variable types: 525 continuous, 2215 integer (2215 binary)
Found heuristic solution: objective -1.6984479

Root relaxation: cutoff, 864 iterations, 0.03 seconds

    Nodes    |    Current Node    |     Objective Bounds      |     Work
 Expl Unexpl |  Obj  Depth IntInf | Incumbent    BestBd   Gap | It/Node Time

     0     0     cutoff    0        -1.69845   -1.69845  0.00%     -    0s

Explored 0 nodes (864 simplex iterations) in 0.11 seconds
Thread count was 4 (of 4 available processors)

Solution count 1: -1.69845 
No other solutions better than -1.69845

Optimal solution found (tolerance 5.00e-02)
Best objective -1.698447893570e+00, best bound -1.698447893570e+00, gap 0.0000%
Gurobi Optimizer version 9.1.1 build v9.1.1rc0 (linux64)
Thread count: 2 physical cores, 4 logical processors, using up to 4 threads
Optimize a model with 15974 rows, 5377 columns and 43212 nonzeros
Model fingerprint: 0x2daf8cfb
Variable types: 1391 continuous, 3986 integer (3708 binary)
Coefficient statistics:
  Matrix range     [1e-02, 1e+06]
  Objective range  [2e-03, 1e+00]
  Bounds range     [1e+00, 1e+00]
  RHS range        [7e-01, 2e+05]

MIP start from previous solve did not produce a new incumbent solution
MIP start from previous solve violates constraint circular by 1.000000000

Presolve removed 13818 rows and 2637 columns
Presolve time: 0.07s
Presolved: 2156 rows, 2740 columns, 13279 nonzeros
Variable types: 525 continuous, 2215 integer (2215 binary)
Found heuristic solution: objective -1.6984479

Root relaxation: cutoff, 890 iterations, 0.03 seconds

    Nodes    |    Current Node    |     Objective Bounds      |     Work
 Expl Unexpl |  Obj  Depth IntInf | Incumbent    BestBd   Gap | It/Node Time

     0     0     cutoff    0        -1.69845   -1.69845  0.00%     -    0s

Explored 0 nodes (890 simplex iterations) in 0.12 seconds
Thread count was 4 (of 4 available processors)

Solution count 1: -1.69845 
No other solutions better than -1.69845

Optimal solution found (tolerance 5.00e-02)
Best objective -1.698447893570e+00, best bound -1.698447893570e+00, gap 0.0000%

Gurobi 9.1.1 (linux64) logging started Wed Dec  1 03:21:49 2021

Changed value of parameter LogFile to /home/aniket/python_scripts/Plasmids-Optimization/exp/2021-06-14__iterative_MILP_edge_novelty/output/sample_53/1.1.1/nplasmids_1/MILP/m.log
   Prev:   Default: 
Changed value of parameter TimeLimit to 240.0
   Prev: inf  Min: 0.0  Max: inf  Default: inf
Changed value of parameter MIPGap to 0.05
   Prev: 0.0001  Min: 0.0  Max: inf  Default: 0.0001
Gurobi Optimizer version 9.1.1 build v9.1.1rc0 (linux64)
Thread count: 2 physical cores, 4 logical processors, using up to 4 threads
Optimize a model with 15878 rows, 5345 columns and 42984 nonzeros
Model fingerprint: 0x4a9b2b82
Variable types: 1381 continuous, 3964 integer (3688 binary)
Coefficient statistics:
  Matrix range     [1e-02, 1e+06]
  Objective range  [2e-03, 1e+00]
  Bounds range     [1e+00, 1e+00]
  RHS range        [7e-01, 2e+05]
Presolve removed 13742 rows and 2614 columns
Presolve time: 0.06s
Presolved: 2136 rows, 2731 columns, 13240 nonzeros
Variable types: 520 continuous, 2211 integer (2211 binary)
Found heuristic solution: objective -0.8492239

Explored 0 nodes (0 simplex iterations) in 0.07 seconds
Thread count was 4 (of 4 available processors)

Solution count 1: -0.849224 

Optimal solution found (tolerance 5.00e-02)
Best objective -8.492239467849e-01, best bound -8.492239467849e-01, gap 0.0000%

Gurobi 9.1.1 (linux64) logging started Wed Dec  1 03:21:50 2021

Changed value of parameter LogFile to /home/aniket/python_scripts/Plasmids-Optimization/exp/2021-06-14__iterative_MILP_edge_novelty/output/sample_53/1.1.1/nplasmids_1/MILP/m.log
   Prev:   Default: 
Changed value of parameter TimeLimit to 240.0
   Prev: inf  Min: 0.0  Max: inf  Default: inf
Changed value of parameter MIPGap to 0.05
   Prev: 0.0001  Min: 0.0  Max: inf  Default: 0.0001
Gurobi Optimizer version 9.1.1 build v9.1.1rc0 (linux64)
Thread count: 2 physical cores, 4 logical processors, using up to 4 threads
Optimize a model with 15840 rows, 5332 columns and 42910 nonzeros
Model fingerprint: 0x16eeb6ee
Variable types: 1376 continuous, 3956 integer (3681 binary)
Coefficient statistics:
  Matrix range     [1e-02, 1e+06]
  Objective range  [2e-03, 1e+00]
  Bounds range     [1e+00, 1e+00]
  RHS range        [7e-01, 2e+05]
Presolve removed 5909 rows and 832 columns
Presolve time: 0.00s

Explored 0 nodes (0 simplex iterations) in 0.01 seconds
Thread count was 1 (of 4 available processors)

Solution count 0

Model is infeasible
Best objective -, best bound -, gap -

Computing Irreducible Inconsistent Subsystem (IIS)...

           Constraints          |            Bounds           |  Runtime
      Min       Max     Guess   |   Min       Max     Guess   |
--------------------------------------------------------------------------
        0     12703         -         0      1651         -           0s
      552       552         -         0         0         -           2s

IIS computed: 552 constraints, 0 bounds
IIS runtime: 1.60 seconds
Warning: linear constraint 0 and linear constraint 1 have the same name "counted_length"
